\* FanduelSelections *\
Maximize
OBJ: 11.3669612159 x0 + 11.5928428418 x1 + 22.6915554279 x10
 + 28.4685340803 x100 + 25.6349167397 x101 + 24.8203958614 x102
 + 28.4685340803 x103 + 25.6349167397 x104 + 25.6349167397 x105
 + 24.8203958614 x106 + 23.7696869593 x107 + 23.7696869593 x108
 + 23.7696869593 x109 + 10.0428806442 x11 + 22.8332586693 x110
 + 24.8203958614 x111 + 25.6349167397 x112 + 24.8203958614 x113
 + 23.7696869593 x114 + 22.8332586693 x115 + 25.6349167397 x116
 + 25.6349167397 x117 + 28.4685340803 x118 + 23.7696869593 x119
 + 11.5773782851 x12 + 28.4685340803 x120 + 22.8332586693 x121
 + 22.8332586693 x122 + 22.8332586693 x123 + 28.4685340803 x124
 + 22.8332586693 x125 + 25.6349167397 x126 + 28.4685340803 x127
 + 28.4685340803 x128 + 23.7696869593 x129 + 10.7386625479 x13
 + 24.8203958614 x130 + 28.4685340803 x131 + 24.8203958614 x132
 + 25.6349167397 x133 + 22.8332586693 x134 + 25.6349167397 x135
 + 25.6349167397 x136 + 22.8332586693 x137 + 25.6349167397 x138
 + 25.6349167397 x139 + 11.9399769774 x14 + 28.4685340803 x140
 + 24.8203958614 x141 + 22.8332586693 x142 + 28.4685340803 x143
 + 25.6349167397 x144 + 22.8332586693 x145 + 22.8332586693 x146
 + 24.8203958614 x147 + 25.6349167397 x148 + 24.8203958614 x149
 + 22.8332586693 x15 + 24.8203958614 x150 + 22.8332586693 x151
 + 25.6349167397 x152 + 22.8332586693 x153 + 24.8203958614 x154
 + 25.6349167397 x155 + 23.7696869593 x156 + 25.6349167397 x157
 + 22.8332586693 x158 + 25.6349167397 x159 + 23.7696869593 x16
 + 24.8203958614 x160 + 23.7696869593 x161 + 22.8332586693 x162
 + 22.8332586693 x163 + 28.4685340803 x164 + 23.7696869593 x165
 + 24.8203958614 x166 + 22.8332586693 x167 + 23.7696869593 x17
 + 23.7696869593 x18 + 25.6349167397 x19 + 14.3493407495 x2
 + 22.8332586693 x20 + 24.8203958614 x21 + 25.6349167397 x22
 + 24.8203958614 x23 + 23.7696869593 x24 + 24.8203958614 x25
 + 22.8332586693 x26 + 25.6349167397 x27 + 22.8332586693 x28
 + 24.8203958614 x29 + 14.7846781539 x3 + 22.8332586693 x30
 + 24.8203958614 x31 + 23.7696869593 x32 + 23.7696869593 x33
 + 25.6349167397 x34 + 28.4685340803 x35 + 28.4685340803 x36
 + 23.7696869593 x37 + 22.8332586693 x38 + 24.8203958614 x39
 + 17.9849942671 x4 + 23.7696869593 x40 + 23.7696869593 x41
 + 28.4685340803 x42 + 24.8203958614 x43 + 22.8332586693 x44
 + 22.8332586693 x45 + 22.8332586693 x46 + 22.8332586693 x47
 + 23.7696869593 x48 + 25.6349167397 x49 + 21.7633624444 x5
 + 25.6349167397 x50 + 28.4685340803 x51 + 24.8203958614 x52
 + 23.7696869593 x53 + 22.8332586693 x54 + 23.7696869593 x55
 + 23.7696869593 x56 + 24.8203958614 x57 + 28.4685340803 x58
 + 25.6349167397 x59 + 10.9779587123 x6 + 23.7696869593 x60
 + 24.8203958614 x61 + 28.4685340803 x62 + 25.6349167397 x63
 + 28.4685340803 x64 + 25.6349167397 x65 + 24.8203958614 x66
 + 23.7696869593 x67 + 25.6349167397 x68 + 25.6349167397 x69
 + 16.7481059674 x7 + 24.8203958614 x70 + 22.8332586693 x71
 + 24.8203958614 x72 + 25.6349167397 x73 + 22.8332586693 x74
 + 22.8332586693 x75 + 22.8332586693 x76 + 25.6349167397 x77
 + 22.8332586693 x78 + 28.4685340803 x79 + 27.0682698322 x8
 + 23.7696869593 x80 + 23.7696869593 x81 + 28.4685340803 x82
 + 23.7696869593 x83 + 28.4685340803 x84 + 23.7696869593 x85
 + 24.8203958614 x86 + 25.6349167397 x87 + 22.8332586693 x88
 + 28.4685340803 x89 + 19.8546605112 x9 + 24.8203958614 x90
 + 28.4685340803 x91 + 24.8203958614 x92 + 25.6349167397 x93
 + 23.7696869593 x94 + 25.6349167397 x95 + 28.4685340803 x96
 + 23.7696869593 x97 + 24.8203958614 x98 + 25.6349167397 x99
Subject To
_C1: x0 + x1 + x10 + x100 + x101 + x102 + x103 + x104 + x105 + x106 + x107
 + x108 + x109 + x11 + x110 + x111 + x112 + x113 + x114 + x115 + x116 + x117
 + x118 + x119 + x12 + x120 + x121 + x122 + x123 + x124 + x125 + x126 + x127
 + x128 + x129 + x13 + x130 + x131 + x132 + x133 + x134 + x135 + x136 + x137
 + x138 + x139 + x14 + x140 + x141 + x142 + x143 + x144 + x145 + x146 + x147
 + x148 + x149 + x15 + x150 + x151 + x152 + x153 + x154 + x155 + x156 + x157
 + x158 + x159 + x16 + x160 + x161 + x162 + x163 + x164 + x165 + x166 + x167
 + x17 + x18 + x19 + x2 + x20 + x21 + x22 + x23 + x24 + x25 + x26 + x27 + x28
 + x29 + x3 + x30 + x31 + x32 + x33 + x34 + x35 + x36 + x37 + x38 + x39 + x4
 + x40 + x41 + x42 + x43 + x44 + x45 + x46 + x47 + x48 + x49 + x5 + x50 + x51
 + x52 + x53 + x54 + x55 + x56 + x57 + x58 + x59 + x6 + x60 + x61 + x62 + x63
 + x64 + x65 + x66 + x67 + x68 + x69 + x7 + x70 + x71 + x72 + x73 + x74 + x75
 + x76 + x77 + x78 + x79 + x8 + x80 + x81 + x82 + x83 + x84 + x85 + x86 + x87
 + x88 + x89 + x9 + x90 + x91 + x92 + x93 + x94 + x95 + x96 + x97 + x98 + x99
 = 9
_C2: x101 + x104 + x105 + x112 + x116 + x117 + x126 + x133 + x135 + x136
 + x138 + x139 + x144 + x148 + x152 + x155 + x157 + x159 + x19 + x22 + x27
 + x34 + x49 + x50 + x59 + x63 + x65 + x68 + x69 + x73 + x77 + x8 + x87 + x93
 + x95 + x99 = 2
_C3: x107 + x108 + x109 + x114 + x119 + x129 + x14 + x156 + x16 + x161 + x165
 + x17 + x18 + x24 + x3 + x32 + x33 + x37 + x40 + x41 + x48 + x5 + x53 + x55
 + x56 + x60 + x67 + x7 + x80 + x81 + x83 + x85 + x9 + x94 + x97 = 2
_C4: x1 + x11 + x110 + x115 + x12 + x121 + x122 + x123 + x125 + x134 + x137
 + x142 + x145 + x146 + x15 + x151 + x153 + x158 + x162 + x163 + x167 + x2
 + x20 + x26 + x28 + x30 + x38 + x44 + x45 + x46 + x47 + x54 + x71 + x74 + x75
 + x76 + x78 + x88 = 2
_C5: x102 + x106 + x111 + x113 + x13 + x130 + x132 + x141 + x147 + x149 + x150
 + x154 + x160 + x166 + x21 + x23 + x25 + x29 + x31 + x39 + x43 + x52 + x57
 + x6 + x61 + x66 + x70 + x72 + x86 + x90 + x92 + x98 = 2
_C6: x0 + x10 + x100 + x103 + x118 + x120 + x124 + x127 + x128 + x131 + x140
 + x143 + x164 + x35 + x36 + x4 + x42 + x51 + x58 + x62 + x64 + x79 + x82
 + x84 + x89 + x91 + x96 = 1
_C7: 3500 x0 + 3500 x1 + 3900 x10 + 6900 x100 + 3500 x101 + 8300 x102
 + 3500 x103 + 9300 x104 + 4100 x105 + 5900 x106 + 6500 x107 + 3600 x108
 + 4200 x109 + 3500 x11 + 3500 x110 + 7500 x111 + 5700 x112 + 5400 x113
 + 7000 x114 + 3700 x115 + 5700 x116 + 3500 x117 + 9600 x118 + 3700 x119
 + 3500 x12 + 3500 x120 + 3600 x121 + 5200 x122 + 4000 x123 + 5500 x124
 + 6300 x125 + 11500 x126 + 3500 x127 + 4800 x128 + 3600 x129 + 3700 x13
 + 6000 x130 + 4200 x131 + 6000 x132 + 7400 x133 + 3500 x134 + 5300 x135
 + 6300 x136 + 3500 x137 + 4000 x138 + 8300 x139 + 3500 x14 + 6100 x140
 + 3500 x141 + 5200 x142 + 5000 x143 + 6100 x144 + 3700 x145 + 3800 x146
 + 4000 x147 + 3700 x148 + 4200 x149 + 7900 x15 + 4500 x150 + 3500 x151
 + 5400 x152 + 6000 x153 + 4000 x154 + 8900 x155 + 5100 x156 + 5000 x157
 + 3700 x158 + 9000 x159 + 3600 x16 + 4000 x160 + 5500 x161 + 3500 x162
 + 4600 x163 + 6000 x164 + 4300 x165 + 4400 x166 + 3500 x167 + 11500 x17
 + 3900 x18 + 3600 x19 + 3500 x2 + 7400 x20 + 5700 x21 + 3500 x22 + 6900 x23
 + 3600 x24 + 7400 x25 + 5300 x26 + 3800 x27 + 8500 x28 + 5200 x29 + 3500 x3
 + 3800 x30 + 5000 x31 + 3500 x32 + 3700 x33 + 5600 x34 + 4500 x35 + 6800 x36
 + 4800 x37 + 5300 x38 + 3900 x39 + 3500 x4 + 5200 x40 + 9200 x41 + 5800 x42
 + 4500 x43 + 8500 x44 + 3500 x45 + 4800 x46 + 4400 x47 + 4000 x48 + 4300 x49
 + 4000 x5 + 4400 x50 + 4600 x51 + 3900 x52 + 4400 x53 + 5900 x54 + 3600 x55
 + 5800 x56 + 8700 x57 + 6500 x58 + 3800 x59 + 3500 x6 + 4500 x60 + 5000 x61
 + 4000 x62 + 5800 x63 + 8100 x64 + 3500 x65 + 7000 x66 + 3700 x67 + 3600 x68
 + 8000 x69 + 3500 x7 + 4000 x70 + 3800 x71 + 3500 x72 + 5800 x73 + 9600 x74
 + 3500 x75 + 4600 x76 + 6900 x77 + 3700 x78 + 5000 x79 + 5900 x8 + 5600 x80
 + 4200 x81 + 3500 x82 + 3500 x83 + 4300 x84 + 9600 x85 + 4100 x86 + 7500 x87
 + 3700 x88 + 5100 x89 + 3500 x9 + 6400 x90 + 6400 x91 + 4000 x92 + 3600 x93
 + 3500 x94 + 3900 x95 + 4600 x96 + 3900 x97 + 3700 x98 + 3700 x99 <= 60000
Binaries
x0
x1
x10
x100
x101
x102
x103
x104
x105
x106
x107
x108
x109
x11
x110
x111
x112
x113
x114
x115
x116
x117
x118
x119
x12
x120
x121
x122
x123
x124
x125
x126
x127
x128
x129
x13
x130
x131
x132
x133
x134
x135
x136
x137
x138
x139
x14
x140
x141
x142
x143
x144
x145
x146
x147
x148
x149
x15
x150
x151
x152
x153
x154
x155
x156
x157
x158
x159
x16
x160
x161
x162
x163
x164
x165
x166
x167
x17
x18
x19
x2
x20
x21
x22
x23
x24
x25
x26
x27
x28
x29
x3
x30
x31
x32
x33
x34
x35
x36
x37
x38
x39
x4
x40
x41
x42
x43
x44
x45
x46
x47
x48
x49
x5
x50
x51
x52
x53
x54
x55
x56
x57
x58
x59
x6
x60
x61
x62
x63
x64
x65
x66
x67
x68
x69
x7
x70
x71
x72
x73
x74
x75
x76
x77
x78
x79
x8
x80
x81
x82
x83
x84
x85
x86
x87
x88
x89
x9
x90
x91
x92
x93
x94
x95
x96
x97
x98
x99
End
